 O Ti                                   
   1.00000000000000     
    13.9500000000000011    0.0000000000000000    0.0000000000000000
     0.0000000000000000   13.9500000000000011    0.0000000000000000
     0.0000000000000000    0.0000000000000000    8.9280000000000008
   O    Ti
   108    54
Direct
  0.2678869276823690  0.0653538847866244  0.1667030380943615
  0.0653538847866244  0.2678869276823690  0.1667030380943615
  0.1011932345772451  0.1011932345772451  0.0000000000000000
  0.2319802659701864  0.2319802659701864  0.0000000000000000
  0.2680290264901757  0.0654964904708280  0.5000000000000000
  0.0654964904708280  0.2680290264901757  0.5000000000000000
  0.1012728476066940  0.1012728476066940  0.3334240964251620
  0.2320265996178676  0.2320265996178676  0.3333325579522537
  0.2678869276823690  0.0653538847866244  0.8332969619056385
  0.0653538847866244  0.2678869276823690  0.8332969619056385
  0.1012728476066940  0.1012728476066940  0.6665759035748380
  0.2320265996178676  0.2320265996178676  0.6666674420477463
  0.2678504294683819  0.3986379268512295  0.1666254175390662
  0.0653851518455326  0.6012535085389032  0.1666869140984986
  0.1012808078124081  0.4345392176249803  0.0000000000000000
  0.2319531166998843  0.5654973389883864  0.0000000000000000
  0.2679910308245894  0.3987941822874461  0.5000000000000000
  0.0655040306210566  0.6013329147980926  0.5000000000000000
  0.1012518933557658  0.4345982541341442  0.3333586863462656
  0.2320751450360632  0.5653726288476619  0.3332649456825223
  0.2678504294683819  0.3986379268512295  0.8333745824609338
  0.0653851518455326  0.6012535085389032  0.8333130859015014
  0.1012518933557658  0.4345982541341442  0.6666413136537344
  0.2320751450360632  0.5653726288476619  0.6667350543174777
  0.2678832269127724  0.7321167730872276  0.1667232038735733
  0.0653754493232768  0.9346245506767232  0.1667425865619876
  0.1011651510226415  0.7680519124568193  0.0000000000000000
  0.2319480875431879  0.8988348489773585  0.0000000000000000
  0.2678937519831095  0.7321062480168905  0.5000000000000000
  0.0654000042098417  0.9345999957901583  0.5000000000000000
  0.1012022076644712  0.7680096622910284  0.3333536782955449
  0.2319903377089787  0.8987977923355288  0.3333536782955449
  0.2678832269127724  0.7321167730872276  0.8332767961264267
  0.0653754493232768  0.9346245506767232  0.8332574134380124
  0.1012022076644712  0.7680096622910284  0.6666463217044551
  0.2319903377089787  0.8987977923355288  0.6666463217044551
  0.6012535085389032  0.0653851518455326  0.1666869140984986
  0.3986379268512295  0.2678504294683819  0.1666254175390662
  0.4345392176249803  0.1012808078124081  0.0000000000000000
  0.5654973389883864  0.2319531166998843  0.0000000000000000
  0.6013329147980926  0.0655040306210566  0.5000000000000000
  0.3987941822874461  0.2679910308245894  0.5000000000000000
  0.4345982541341442  0.1012518933557658  0.3333586863462656
  0.5653726288476619  0.2320751450360632  0.3332649456825223
  0.6012535085389032  0.0653851518455326  0.8333130859015014
  0.3986379268512295  0.2678504294683819  0.8333745824609338
  0.4345982541341442  0.1012518933557658  0.6666413136537344
  0.5653726288476619  0.2320751450360632  0.6667350543174777
  0.6013190472437628  0.3986809527562372  0.1666028497449972
  0.3986809527562372  0.6013190472437628  0.1666028497449972
  0.4345762229702288  0.4345762229702288  0.0000000000000000
  0.5654237770297712  0.5654237770297712  0.0000000000000000
  0.6012705752159988  0.3987294247840012  0.5000000000000000
  0.3987294247840012  0.6012705752159988  0.5000000000000000
  0.4346030793959130  0.4346030793959130  0.3332776927455043
  0.5653969206040870  0.5653969206040870  0.3332776927455043
  0.6013190472437628  0.3986809527562372  0.8333971502550028
  0.3986809527562372  0.6013190472437628  0.8333971502550028
  0.4346030793959130  0.4346030793959130  0.6667223072544957
  0.5653969206040870  0.5653969206040870  0.6667223072544957
  0.6013620731487705  0.7321495705316181  0.1666254175390662
  0.3987464914610968  0.9346148481544674  0.1666869140984986
  0.4345026610116136  0.7680468833001228  0.0000000000000000
  0.5654607823750197  0.8987191921875919  0.0000000000000000
  0.6012058177125539  0.7320089691754106  0.5000000000000000
  0.3986670852019074  0.9344959693789434  0.5000000000000000
  0.4346273711523381  0.7679248549639439  0.3332649456825223
  0.5654017458658558  0.8987481066442342  0.3333586863462656
  0.6013620731487705  0.7321495705316181  0.8333745824609338
  0.3987464914610968  0.9346148481544674  0.8333130859015014
  0.4346273711523381  0.7679248549639439  0.6667350543174777
  0.5654017458658558  0.8987481066442342  0.6666413136537344
  0.9346245506767232  0.0653754493232768  0.1667425865619876
  0.7321167730872276  0.2678832269127724  0.1667232038735733
  0.7680519124568193  0.1011651510226415  0.0000000000000000
  0.8988348489773585  0.2319480875431879  0.0000000000000000
  0.9345999957901583  0.0654000042098417  0.5000000000000000
  0.7321062480168905  0.2678937519831095  0.5000000000000000
  0.7680096622910284  0.1012022076644712  0.3333536782955449
  0.8987977923355288  0.2319903377089787  0.3333536782955449
  0.9346245506767232  0.0653754493232768  0.8332574134380124
  0.7321167730872276  0.2678832269127724  0.8332767961264267
  0.7680096622910284  0.1012022076644712  0.6666463217044551
  0.8987977923355288  0.2319903377089787  0.6666463217044551
  0.9346148481544674  0.3987464914610968  0.1666869140984986
  0.7321495705316181  0.6013620731487705  0.1666254175390662
  0.7680468833001228  0.4345026610116136  0.0000000000000000
  0.8987191921875919  0.5654607823750197  0.0000000000000000
  0.9344959693789434  0.3986670852019074  0.5000000000000000
  0.7320089691754106  0.6012058177125539  0.5000000000000000
  0.7679248549639439  0.4346273711523381  0.3332649456825223
  0.8987481066442342  0.5654017458658558  0.3333586863462656
  0.9346148481544674  0.3987464914610968  0.8333130859015014
  0.7321495705316181  0.6013620731487705  0.8333745824609338
  0.7679248549639439  0.4346273711523381  0.6667350543174777
  0.8987481066442342  0.5654017458658558  0.6666413136537344
  0.9346461152133756  0.7321130723176310  0.1667030380943615
  0.7321130723176310  0.9346461152133756  0.1667030380943615
  0.7680197340298207  0.7680197340298207  0.0000000000000000
  0.8988067654227549  0.8988067654227549  0.0000000000000000
  0.9345035095291720  0.7319709735098243  0.5000000000000000
  0.7319709735098243  0.9345035095291720  0.5000000000000000
  0.7679734003821324  0.7679734003821324  0.3333325579522537
  0.8987271523933060  0.8987271523933060  0.3334240964251620
  0.9346461152133756  0.7321130723176310  0.8332969619056385
  0.7321130723176310  0.9346461152133756  0.8332969619056385
  0.7679734003821324  0.7679734003821324  0.6666674420477463
  0.8987271523933060  0.8987271523933060  0.6665759035748380
  0.1666295389104135  0.1666295389104135  0.1666717209213857
  0.0000000000000000  0.0000000000000000  0.0000000000000000
  0.1666367878465920  0.1666367878465920  0.5000000000000000
  0.0000000000000000  0.0000000000000000  0.3333154287947977
  0.1666295389104135  0.1666295389104135  0.8333282790786143
  0.0000000000000000  0.0000000000000000  0.6666845712052023
  0.1666419339727838  0.4999916351953004  0.1666568076977626
  0.0000001593768886  0.3333273878599101  0.0000000000000000
  0.1666842390110119  0.5000049071024506  0.5000000000000000
  0.9999939052254163  0.3333289841713167  0.3333637889416394
  0.1666419339727838  0.4999916351953004  0.8333431923022374
  0.9999939052254163  0.3333289841713167  0.6666362110583606
  0.1666309461886257  0.8333690538113743  0.1666945487905949
  0.9999998406231114  0.6666726121400899  0.0000000000000000
  0.1665889593276049  0.8334110406723951  0.5000000000000000
  0.0000060947745837  0.6666710158286833  0.3333637889416394
  0.1666309461886257  0.8333690538113743  0.8333054512094051
  0.0000060947745837  0.6666710158286833  0.6666362110583606
  0.4999916351953004  0.1666419339727838  0.1666568076977626
  0.3333273878599101  0.0000001593768886  0.0000000000000000
  0.5000049071024506  0.1666842390110119  0.5000000000000000
  0.3333289841713167  0.9999939052254163  0.3333637889416394
  0.4999916351953004  0.1666419339727838  0.8333431923022374
  0.3333289841713167  0.9999939052254163  0.6666362110583606
  0.5000000000000000  0.5000000000000000  0.1667021765487249
  0.3333087751562402  0.3333087751562402  0.0000000000000000
  0.5000000000000000  0.5000000000000000  0.5000000000000000
  0.3332840251324285  0.3332840251324285  0.3333144437826050
  0.5000000000000000  0.5000000000000000  0.8332978234512751
  0.3332840251324285  0.3332840251324285  0.6666855562173879
  0.5000083648046996  0.8333580660272162  0.1666568076977626
  0.3332895809213383  0.6667104190786617  0.0000000000000000
  0.4999950928975494  0.8333157609889881  0.5000000000000000
  0.3332911964214347  0.6667088035785653  0.3333430126732111
  0.5000083648046996  0.8333580660272162  0.8333431923022374
  0.3332911964214347  0.6667088035785653  0.6666569873267889
  0.8333690538113743  0.1666309461886257  0.1666945487905949
  0.6666726121400899  0.9999998406231114  0.0000000000000000
  0.8334110406723951  0.1665889593276049  0.5000000000000000
  0.6666710158286833  0.0000060947745837  0.3333637889416394
  0.8333690538113743  0.1666309461886257  0.8333054512094051
  0.6666710158286833  0.0000060947745837  0.6666362110583606
  0.8333580660272162  0.5000083648046996  0.1666568076977626
  0.6667104190786617  0.3332895809213383  0.0000000000000000
  0.8333157609889881  0.4999950928975494  0.5000000000000000
  0.6667088035785653  0.3332911964214347  0.3333430126732111
  0.8333580660272162  0.5000083648046996  0.8333431923022374
  0.6667088035785653  0.3332911964214347  0.6666569873267889
  0.8333704610895865  0.8333704610895865  0.1666717209213857
  0.6666912248437598  0.6666912248437598  0.0000000000000000
  0.8333632121534080  0.8333632121534080  0.5000000000000000
  0.6667159748675715  0.6667159748675715  0.3333144437826050
  0.8333704610895865  0.8333704610895865  0.8333282790786143
  0.6667159748675715  0.6667159748675715  0.6666855562173879
 
  0.00000000E+00  0.00000000E+00  0.00000000E+00
  0.00000000E+00  0.00000000E+00  0.00000000E+00
  0.00000000E+00  0.00000000E+00  0.00000000E+00
  0.00000000E+00  0.00000000E+00  0.00000000E+00
  0.00000000E+00  0.00000000E+00  0.00000000E+00
  0.00000000E+00  0.00000000E+00  0.00000000E+00
  0.00000000E+00  0.00000000E+00  0.00000000E+00
  0.00000000E+00  0.00000000E+00  0.00000000E+00
  0.00000000E+00  0.00000000E+00  0.00000000E+00
  0.00000000E+00  0.00000000E+00  0.00000000E+00
  0.00000000E+00  0.00000000E+00  0.00000000E+00
  0.00000000E+00  0.00000000E+00  0.00000000E+00
  0.00000000E+00  0.00000000E+00  0.00000000E+00
  0.00000000E+00  0.00000000E+00  0.00000000E+00
  0.00000000E+00  0.00000000E+00  0.00000000E+00
  0.00000000E+00  0.00000000E+00  0.00000000E+00
  0.00000000E+00  0.00000000E+00  0.00000000E+00
  0.00000000E+00  0.00000000E+00  0.00000000E+00
  0.00000000E+00  0.00000000E+00  0.00000000E+00
  0.00000000E+00  0.00000000E+00  0.00000000E+00
  0.00000000E+00  0.00000000E+00  0.00000000E+00
  0.00000000E+00  0.00000000E+00  0.00000000E+00
  0.00000000E+00  0.00000000E+00  0.00000000E+00
  0.00000000E+00  0.00000000E+00  0.00000000E+00
  0.00000000E+00  0.00000000E+00  0.00000000E+00
  0.00000000E+00  0.00000000E+00  0.00000000E+00
  0.00000000E+00  0.00000000E+00  0.00000000E+00
  0.00000000E+00  0.00000000E+00  0.00000000E+00
  0.00000000E+00  0.00000000E+00  0.00000000E+00
  0.00000000E+00  0.00000000E+00  0.00000000E+00
  0.00000000E+00  0.00000000E+00  0.00000000E+00
  0.00000000E+00  0.00000000E+00  0.00000000E+00
  0.00000000E+00  0.00000000E+00  0.00000000E+00
  0.00000000E+00  0.00000000E+00  0.00000000E+00
  0.00000000E+00  0.00000000E+00  0.00000000E+00
  0.00000000E+00  0.00000000E+00  0.00000000E+00
  0.00000000E+00  0.00000000E+00  0.00000000E+00
  0.00000000E+00  0.00000000E+00  0.00000000E+00
  0.00000000E+00  0.00000000E+00  0.00000000E+00
  0.00000000E+00  0.00000000E+00  0.00000000E+00
  0.00000000E+00  0.00000000E+00  0.00000000E+00
  0.00000000E+00  0.00000000E+00  0.00000000E+00
  0.00000000E+00  0.00000000E+00  0.00000000E+00
  0.00000000E+00  0.00000000E+00  0.00000000E+00
  0.00000000E+00  0.00000000E+00  0.00000000E+00
  0.00000000E+00  0.00000000E+00  0.00000000E+00
  0.00000000E+00  0.00000000E+00  0.00000000E+00
  0.00000000E+00  0.00000000E+00  0.00000000E+00
  0.00000000E+00  0.00000000E+00  0.00000000E+00
  0.00000000E+00  0.00000000E+00  0.00000000E+00
  0.00000000E+00  0.00000000E+00  0.00000000E+00
  0.00000000E+00  0.00000000E+00  0.00000000E+00
  0.00000000E+00  0.00000000E+00  0.00000000E+00
  0.00000000E+00  0.00000000E+00  0.00000000E+00
  0.00000000E+00  0.00000000E+00  0.00000000E+00
  0.00000000E+00  0.00000000E+00  0.00000000E+00
  0.00000000E+00  0.00000000E+00  0.00000000E+00
  0.00000000E+00  0.00000000E+00  0.00000000E+00
  0.00000000E+00  0.00000000E+00  0.00000000E+00
  0.00000000E+00  0.00000000E+00  0.00000000E+00
  0.00000000E+00  0.00000000E+00  0.00000000E+00
  0.00000000E+00  0.00000000E+00  0.00000000E+00
  0.00000000E+00  0.00000000E+00  0.00000000E+00
  0.00000000E+00  0.00000000E+00  0.00000000E+00
  0.00000000E+00  0.00000000E+00  0.00000000E+00
  0.00000000E+00  0.00000000E+00  0.00000000E+00
  0.00000000E+00  0.00000000E+00  0.00000000E+00
  0.00000000E+00  0.00000000E+00  0.00000000E+00
  0.00000000E+00  0.00000000E+00  0.00000000E+00
  0.00000000E+00  0.00000000E+00  0.00000000E+00
  0.00000000E+00  0.00000000E+00  0.00000000E+00
  0.00000000E+00  0.00000000E+00  0.00000000E+00
  0.00000000E+00  0.00000000E+00  0.00000000E+00
  0.00000000E+00  0.00000000E+00  0.00000000E+00
  0.00000000E+00  0.00000000E+00  0.00000000E+00
  0.00000000E+00  0.00000000E+00  0.00000000E+00
  0.00000000E+00  0.00000000E+00  0.00000000E+00
  0.00000000E+00  0.00000000E+00  0.00000000E+00
  0.00000000E+00  0.00000000E+00  0.00000000E+00
  0.00000000E+00  0.00000000E+00  0.00000000E+00
  0.00000000E+00  0.00000000E+00  0.00000000E+00
  0.00000000E+00  0.00000000E+00  0.00000000E+00
  0.00000000E+00  0.00000000E+00  0.00000000E+00
  0.00000000E+00  0.00000000E+00  0.00000000E+00
  0.00000000E+00  0.00000000E+00  0.00000000E+00
  0.00000000E+00  0.00000000E+00  0.00000000E+00
  0.00000000E+00  0.00000000E+00  0.00000000E+00
  0.00000000E+00  0.00000000E+00  0.00000000E+00
  0.00000000E+00  0.00000000E+00  0.00000000E+00
  0.00000000E+00  0.00000000E+00  0.00000000E+00
  0.00000000E+00  0.00000000E+00  0.00000000E+00
  0.00000000E+00  0.00000000E+00  0.00000000E+00
  0.00000000E+00  0.00000000E+00  0.00000000E+00
  0.00000000E+00  0.00000000E+00  0.00000000E+00
  0.00000000E+00  0.00000000E+00  0.00000000E+00
  0.00000000E+00  0.00000000E+00  0.00000000E+00
  0.00000000E+00  0.00000000E+00  0.00000000E+00
  0.00000000E+00  0.00000000E+00  0.00000000E+00
  0.00000000E+00  0.00000000E+00  0.00000000E+00
  0.00000000E+00  0.00000000E+00  0.00000000E+00
  0.00000000E+00  0.00000000E+00  0.00000000E+00
  0.00000000E+00  0.00000000E+00  0.00000000E+00
  0.00000000E+00  0.00000000E+00  0.00000000E+00
  0.00000000E+00  0.00000000E+00  0.00000000E+00
  0.00000000E+00  0.00000000E+00  0.00000000E+00
  0.00000000E+00  0.00000000E+00  0.00000000E+00
  0.00000000E+00  0.00000000E+00  0.00000000E+00
  0.00000000E+00  0.00000000E+00  0.00000000E+00
  0.00000000E+00  0.00000000E+00  0.00000000E+00
  0.00000000E+00  0.00000000E+00  0.00000000E+00
  0.00000000E+00  0.00000000E+00  0.00000000E+00
  0.00000000E+00  0.00000000E+00  0.00000000E+00
  0.00000000E+00  0.00000000E+00  0.00000000E+00
  0.00000000E+00  0.00000000E+00  0.00000000E+00
  0.00000000E+00  0.00000000E+00  0.00000000E+00
  0.00000000E+00  0.00000000E+00  0.00000000E+00
  0.00000000E+00  0.00000000E+00  0.00000000E+00
  0.00000000E+00  0.00000000E+00  0.00000000E+00
  0.00000000E+00  0.00000000E+00  0.00000000E+00
  0.00000000E+00  0.00000000E+00  0.00000000E+00
  0.00000000E+00  0.00000000E+00  0.00000000E+00
  0.00000000E+00  0.00000000E+00  0.00000000E+00
  0.00000000E+00  0.00000000E+00  0.00000000E+00
  0.00000000E+00  0.00000000E+00  0.00000000E+00
  0.00000000E+00  0.00000000E+00  0.00000000E+00
  0.00000000E+00  0.00000000E+00  0.00000000E+00
  0.00000000E+00  0.00000000E+00  0.00000000E+00
  0.00000000E+00  0.00000000E+00  0.00000000E+00
  0.00000000E+00  0.00000000E+00  0.00000000E+00
  0.00000000E+00  0.00000000E+00  0.00000000E+00
  0.00000000E+00  0.00000000E+00  0.00000000E+00
  0.00000000E+00  0.00000000E+00  0.00000000E+00
  0.00000000E+00  0.00000000E+00  0.00000000E+00
  0.00000000E+00  0.00000000E+00  0.00000000E+00
  0.00000000E+00  0.00000000E+00  0.00000000E+00
  0.00000000E+00  0.00000000E+00  0.00000000E+00
  0.00000000E+00  0.00000000E+00  0.00000000E+00
  0.00000000E+00  0.00000000E+00  0.00000000E+00
  0.00000000E+00  0.00000000E+00  0.00000000E+00
  0.00000000E+00  0.00000000E+00  0.00000000E+00
  0.00000000E+00  0.00000000E+00  0.00000000E+00
  0.00000000E+00  0.00000000E+00  0.00000000E+00
  0.00000000E+00  0.00000000E+00  0.00000000E+00
  0.00000000E+00  0.00000000E+00  0.00000000E+00
  0.00000000E+00  0.00000000E+00  0.00000000E+00
  0.00000000E+00  0.00000000E+00  0.00000000E+00
  0.00000000E+00  0.00000000E+00  0.00000000E+00
  0.00000000E+00  0.00000000E+00  0.00000000E+00
  0.00000000E+00  0.00000000E+00  0.00000000E+00
  0.00000000E+00  0.00000000E+00  0.00000000E+00
  0.00000000E+00  0.00000000E+00  0.00000000E+00
  0.00000000E+00  0.00000000E+00  0.00000000E+00
  0.00000000E+00  0.00000000E+00  0.00000000E+00
  0.00000000E+00  0.00000000E+00  0.00000000E+00
  0.00000000E+00  0.00000000E+00  0.00000000E+00
  0.00000000E+00  0.00000000E+00  0.00000000E+00
  0.00000000E+00  0.00000000E+00  0.00000000E+00
  0.00000000E+00  0.00000000E+00  0.00000000E+00
  0.00000000E+00  0.00000000E+00  0.00000000E+00
  0.00000000E+00  0.00000000E+00  0.00000000E+00
  0.00000000E+00  0.00000000E+00  0.00000000E+00
  0.00000000E+00  0.00000000E+00  0.00000000E+00
