 O Ti                                   
   1.00000000000000     
    13.9500000000000011    0.0000000000000000    0.0000000000000000
     0.0000000000000000   13.9500000000000011    0.0000000000000000
     0.0000000000000000    0.0000000000000000    8.9280000000000008
   O    Ti
   108    54
Cartesian
3.737023 0.911687 1.488325
0.911687 3.737023 1.488325
1.411646 1.411646 0.000000
3.179583 3.179583 0.000000
3.739005 0.913676 4.464000
0.913676 3.739005 4.464000
1.412756 1.412756 2.976810
3.236771 3.236771 2.975993
3.737023 0.911687 7.439675
0.911687 3.737023 7.439675
1.412756 1.412756 5.951190
3.236771 3.236771 5.952007
3.699988 5.597453 1.547137
0.912123 8.387486 1.488181
1.283396 6.118309 0.000000
3.235746 7.888688 0.000000
3.738475 5.563179 4.464000
0.913781 8.388594 4.464000
1.412464 6.062646 2.976226
3.237448 7.886948 2.975389
3.736513 5.560999 7.440368
0.912123 8.387486 7.439819
1.412464 6.062646 5.951774
3.237448 7.886948 5.952611
3.736971 10.213029 1.488505
0.911988 13.038012 1.488678
1.411254 10.714324 0.000000
3.235676 12.538746 0.000000
3.737118 10.212882 4.464000
0.912330 13.037670 4.464000
1.411771 10.713735 2.976182
3.236265 12.538229 2.976182
3.736971 10.213029 7.439495
0.911988 13.038012 7.439322
1.411771 10.713735 5.951818
3.236265 12.538229 5.951818
8.387486 0.912123 1.488181
5.597453 3.699988 1.547137
6.061822 1.412867 0.000000
7.888688 3.235746 0.000000
8.388594 0.913781 4.464000
5.563179 3.738475 4.464000
6.062646 1.412464 2.976226
7.886948 3.237448 2.975389
8.387486 0.912123 7.439819
5.560999 3.736513 7.440368
6.062646 1.412464 5.951774
7.886948 3.237448 5.952611
8.388401 5.561599 1.487430
5.561599 8.388401 1.487430
6.118846 6.118846 0.000000
7.887662 7.887662 0.000000
8.387725 5.562275 4.464000
5.562275 8.387725 4.464000
6.062713 6.062713 2.975503
7.887287 7.887287 2.975503
8.388401 5.561599 7.440570
5.561599 8.388401 7.440570
6.062713 6.062713 5.952497
7.887287 7.887287 5.952497
8.389001 10.213487 1.487632
5.562514 13.037877 1.488181
6.061312 10.714254 0.000000
7.888178 12.537133 0.000000
8.386821 10.211525 4.464000
5.561406 13.036219 4.464000
6.063052 10.712552 2.975389
7.887354 12.537536 2.976226
8.389001 10.213487 7.440368
5.562514 13.037877 7.439819
6.063052 10.712552 5.952611
7.887354 12.537536 5.951774
13.038012 0.911988 1.488678
10.213029 3.736971 1.488505
10.714324 1.411254 0.000000
12.538746 3.235676 0.000000
13.037670 0.912330 4.464000
10.212882 3.737118 4.464000
10.713735 1.411771 2.976182
12.538229 3.236265 2.976182
13.038012 0.911988 7.439322
10.213029 3.736971 7.439495
10.713735 1.411771 5.951818
12.538229 3.236265 5.951818
13.037877 5.562514 1.488181
10.213487 8.389001 1.487632
10.714254 6.061312 0.000000
12.537133 7.888178 0.000000
13.036219 5.561406 4.464000
10.211525 8.386821 4.464000
10.712552 6.063052 2.975389
12.537536 7.887354 2.976226
13.037877 5.562514 7.439819
10.213487 8.389001 7.440368
10.712552 6.063052 5.952611
12.537536 7.887354 5.951774
13.038313 10.212977 1.488325
10.212977 13.038313 1.488325
10.713875 10.713875 0.000000
12.538354 12.538354 0.000000
13.036324 10.210995 4.464000
10.210995 13.036324 4.464000
10.713229 10.713229 2.975993
12.537244 12.537244 2.976810
13.038313 10.212977 7.439675
10.212977 13.038313 7.439675
10.713229 10.713229 5.952007
12.537244 12.537244 5.951190
2.324482 2.324482 1.488045
0.000000 0.000000 0.000000
2.324583 2.324583 4.464000
0.000000 0.000000 2.975840
2.324482 2.324482 7.439955
0.000000 0.000000 5.952160
2.324655 6.974883 1.487912
0.000002 4.649917 0.000000
2.325245 6.975068 4.464000
13.949915 4.649939 2.976272
2.324655 6.974883 7.440088
13.949915 4.649939 5.951728
2.324502 11.625498 1.488249
13.949998 9.300083 0.000000
2.323916 11.626084 4.464000
0.000085 9.300061 2.976272
2.324502 11.625498 7.439751
0.000085 9.300061 5.951728
6.974883 2.324655 1.487912
4.649917 0.000002 0.000000
6.975068 2.325245 4.464000
4.649939 13.949915 2.976272
6.974883 2.324655 7.440088
4.649939 13.949915 5.951728
6.975000 6.975000 1.488317
4.649657 4.649657 0.000000
6.975000 6.975000 4.464000
4.649298 4.649298 3.094865
6.975000 6.975000 7.439683
4.649312 4.649312 5.952169
6.975117 11.625345 1.487912
4.649390 9.300610 0.000000
6.974932 11.624755 4.464000
4.649412 9.300588 2.976086
6.975117 11.625345 7.440088
4.649412 9.300588 5.951914
11.625498 2.324502 1.488249
9.300083 13.949998 0.000000
11.626084 2.323916 4.464000
9.300061 0.000085 2.976272
11.625498 2.324502 7.439751
9.300061 0.000085 5.951728
11.625345 6.975117 1.487912
9.300610 4.649390 0.000000
11.624755 6.974932 4.464000
9.300588 4.649412 2.976086
11.625345 6.975117 7.440088
9.300588 4.649412 5.951914
11.625518 11.625518 1.488045
9.300343 9.300343 0.000000
11.625417 11.625417 4.464000
9.300688 9.300688 2.975831
11.625518 11.625518 7.439955
9.300688 9.300688 5.952169
