 O Ti                                   
   1.00000000000000     
    13.9500000000000011    0.0000000000000000    0.0000000000000000
     0.0000000000000000   13.9500000000000011    0.0000000000000000
     0.0000000000000000    0.0000000000000000    8.9280000000000008
   O    Ti
   108    54
Direct
  0.2678869276823717  0.0653538847866217  0.1667030380943602
  0.0653538847866217  0.2678869276823717  0.1667030380943602
  0.1011932345772441  0.1011932345772441  0.0000000000000000
  0.2319802659701854  0.2319802659701854  0.0000000000000000
  0.2680290264901761  0.0654964904708312  0.5000000000000000
  0.0654964904708312  0.2680290264901761  0.5000000000000000
  0.1012728476066909  0.1012728476066909  0.3334240964251645
  0.2320265996178711  0.2320265996178711  0.3333325579522545
  0.2678869276823717  0.0653538847866217  0.8332969619056398
  0.0653538847866217  0.2678869276823717  0.8332969619056398
  0.1012728476066909  0.1012728476066909  0.6665759035748354
  0.2320265996178711  0.2320265996178711  0.6666674420477454
  0.2678504294683816  0.3986379268512273  0.1666254175390663
  0.0653851518455324  0.6012535085389055  0.1666869140985017
  0.1012808078124106  0.4345392176249812  0.0000000000000000
  0.2319531166998859  0.5654973389883891  0.0000000000000000
  0.2679910308245879  0.3987941822874429  0.5000000000000000
  0.0655040306210544  0.6013329147980906  0.5000000000000000
  0.1012518933557648  0.4345982541341418  0.3333586863462654
  0.2320751450360603  0.5653726288476603  0.3332649456825191
  0.2678504294683816  0.3986379268512273  0.8333745824609338
  0.0653851518455324  0.6012535085389055  0.8333130859014982
  0.1012518933557648  0.4345982541341418  0.6666413136537346
  0.2320751450360603  0.5653726288476603  0.6667350543174811
  0.2678832269127742  0.7321167730872259  0.1667232038735728
  0.0653754493232791  0.9346245506767208  0.1667425865619887
  0.1011651510226385  0.7680519124568168  0.0000000000000000
  0.2319480875431905  0.8988348489773615  0.0000000000000000
  0.2678937519831100  0.7321062480168899  0.5000000000000000
  0.0654000042098437  0.9345999957901564  0.5000000000000000
  0.1012022076644691  0.7680096622910292  0.3333536782955424
  0.2319903377089781  0.8987977923355306  0.3333536782955424
  0.2678832269127742  0.7321167730872259  0.8332767961264274
  0.0653754493232791  0.9346245506767208  0.8332574134380113
  0.1012022076644691  0.7680096622910292  0.6666463217044578
  0.2319903377089781  0.8987977923355306  0.6666463217044578
  0.6012535085389055  0.0653851518455324  0.1666869140985017
  0.3986379268512273  0.2678504294683816  0.1666254175390663
  0.4345392176249812  0.1012808078124106  0.0000000000000000
  0.5654973389883891  0.2319531166998859  0.0000000000000000
  0.6013329147980906  0.0655040306210544  0.5000000000000000
  0.3987941822874429  0.2679910308245879  0.5000000000000000
  0.4345982541341418  0.1012518933557648  0.3333586863462654
  0.5653726288476603  0.2320751450360603  0.3332649456825191
  0.6012535085389055  0.0653851518455324  0.8333130859014982
  0.3986379268512273  0.2678504294683816  0.8333745824609338
  0.4345982541341418  0.1012518933557648  0.6666413136537346
  0.5653726288476603  0.2320751450360603  0.6667350543174811
  0.6013190472437634  0.3986809527562367  0.1666028497449941
  0.3986809527562367  0.6013190472437634  0.1666028497449941
  0.4345762229702275  0.4345762229702275  0.0000000000000000
  0.5654237770297724  0.5654237770297724  0.0000000000000000
  0.6012705752159999  0.3987294247839999  0.5000000000000000
  0.3987294247839999  0.6012705752159999  0.5000000000000000
  0.4346030793959138  0.4346030793959138  0.3332776927455026
  0.5653969206040863  0.5653969206040863  0.3332776927455026
  0.6013190472437634  0.3986809527562367  0.8333971502550058
  0.3986809527562367  0.6013190472437634  0.8333971502550058
  0.4346030793959138  0.4346030793959138  0.6667223072544977
  0.5653969206040863  0.5653969206040863  0.6667223072544977
  0.6013620731487728  0.7321495705316186  0.1666254175390663
  0.3987464914610948  0.9346148481544677  0.1666869140985017
  0.4345026610116109  0.7680468833001213  0.0000000000000000
  0.5654607823750187  0.8987191921875893  0.0000000000000000
  0.6012058177125570  0.7320089691754122  0.5000000000000000
  0.3986670852019095  0.9344959693789456  0.5000000000000000
  0.4346273711523397  0.7679248549639468  0.3332649456825191
  0.5654017458658583  0.8987481066442352  0.3333586863462654
  0.6013620731487728  0.7321495705316186  0.8333745824609338
  0.3987464914610948  0.9346148481544677  0.8333130859014982
  0.4346273711523397  0.7679248549639468  0.6667350543174811
  0.5654017458658583  0.8987481066442352  0.6666413136537346
  0.9346245506767208  0.0653754493232791  0.1667425865619887
  0.7321167730872259  0.2678832269127742  0.1667232038735728
  0.7680519124568168  0.1011651510226385  0.0000000000000000
  0.8988348489773615  0.2319480875431905  0.0000000000000000
  0.9345999957901564  0.0654000042098437  0.5000000000000000
  0.7321062480168899  0.2678937519831100  0.5000000000000000
  0.7680096622910292  0.1012022076644691  0.3333536782955424
  0.8987977923355306  0.2319903377089781  0.3333536782955424
  0.9346245506767208  0.0653754493232791  0.8332574134380113
  0.7321167730872259  0.2678832269127742  0.8332767961264274
  0.7680096622910292  0.1012022076644691  0.6666463217044578
  0.8987977923355306  0.2319903377089781  0.6666463217044578
  0.9346148481544677  0.3987464914610948  0.1666869140985017
  0.7321495705316186  0.6013620731487728  0.1666254175390663
  0.7680468833001213  0.4345026610116109  0.0000000000000000
  0.8987191921875893  0.5654607823750187  0.0000000000000000
  0.9344959693789456  0.3986670852019095  0.5000000000000000
  0.7320089691754122  0.6012058177125570  0.5000000000000000
  0.7679248549639468  0.4346273711523397  0.3332649456825191
  0.8987481066442352  0.5654017458658583  0.3333586863462654
  0.9346148481544677  0.3987464914610948  0.8333130859014982
  0.7321495705316186  0.6013620731487728  0.8333745824609338
  0.7679248549639468  0.4346273711523397  0.6667350543174811
  0.8987481066442352  0.5654017458658583  0.6666413136537346
  0.9346461152133783  0.7321130723176285  0.1667030380943602
  0.7321130723176285  0.9346461152133783  0.1667030380943602
  0.7680197340298217  0.7680197340298217  0.0000000000000000
  0.8988067654227558  0.8988067654227558  0.0000000000000000
  0.9345035095291688  0.7319709735098238  0.5000000000000000
  0.7319709735098238  0.9345035095291688  0.5000000000000000
  0.7679734003821359  0.7679734003821359  0.3333325579522545
  0.8987271523933090  0.8987271523933090  0.3334240964251645
  0.9346461152133783  0.7321130723176285  0.8332969619056398
  0.7321130723176285  0.9346461152133783  0.8332969619056398
  0.7679734003821359  0.7679734003821359  0.6666674420477454
  0.8987271523933090  0.8987271523933090  0.6665759035748354
  0.1666295389104169  0.1666295389104169  0.1666717209213862
 -0.0000000000000000 -0.0000000000000000  0.0000000000000000
  0.1666367878465935  0.1666367878465935  0.5000000000000000
 -0.0000000000000000 -0.0000000000000000  0.3333154287947960
  0.1666295389104169  0.1666295389104169  0.8333282790786138
 -0.0000000000000000 -0.0000000000000000  0.6666845712052040
  0.1666419339727851  0.4999916351952978  0.1666568076977636
  0.0000001593768875  0.3333273878599086  0.0000000000000000
  0.1666842390110133  0.5000049071024532  0.5000000000000000
 -0.0000060947745861  0.3333289841713186  0.3333637889416383
  0.1666419339727851  0.4999916351952978  0.8333431923022364
 -0.0000060947745861  0.3333289841713186  0.6666362110583616
  0.1666309461886251  0.8333690538113749  0.1666945487905918
 -0.0000001593768875  0.6666726121400912  0.0000000000000000
  0.1665889593276056  0.8334110406723946  0.5000000000000000
  0.0000060947745861  0.6666710158286813  0.3333637889416383
  0.1666309461886251  0.8333690538113749  0.8333054512094081
  0.0000060947745861  0.6666710158286813  0.6666362110583616
  0.4999916351952978  0.1666419339727851  0.1666568076977636
  0.3333273878599086  0.0000001593768875  0.0000000000000000
  0.5000049071024532  0.1666842390110133  0.5000000000000000
  0.3333289841713186 -0.0000060947745861  0.3333637889416383
  0.4999916351952978  0.1666419339727851  0.8333431923022364
  0.3333289841713186 -0.0000060947745861  0.6666362110583616
  0.5000000000000000  0.5000000000000000  0.1667021765487215
  0.3333087751562394  0.3333087751562394  0.0000000000000000
  0.5000000000000000  0.5000000000000000  0.5000000000000000
  0.3332840251324312  0.3332840251324312  0.3333144437826083
  0.5000000000000000  0.5000000000000000  0.8332978234512786
  0.3332840251324312  0.3332840251324312  0.6666855562173915
  0.5000083648047022  0.8333580660272148  0.1666568076977636
  0.3332895809213405  0.6667104190786596  0.0000000000000000
  0.4999950928975468  0.8333157609889867  0.5000000000000000
  0.3332911964214322  0.6667088035785678  0.3333430126732117
  0.5000083648047022  0.8333580660272148  0.8333431923022364
  0.3332911964214322  0.6667088035785678  0.6666569873267884
  0.8333690538113749  0.1666309461886251  0.1666945487905918
  0.6666726121400912 -0.0000001593768875  0.0000000000000000
  0.8334110406723946  0.1665889593276056  0.5000000000000000
  0.6666710158286813  0.0000060947745861  0.3333637889416383
  0.8333690538113749  0.1666309461886251  0.8333054512094081
  0.6666710158286813  0.0000060947745861  0.6666362110583616
  0.8333580660272148  0.5000083648047022  0.1666568076977636
  0.6667104190786596  0.3332895809213405  0.0000000000000000
  0.8333157609889867  0.4999950928975468  0.5000000000000000
  0.6667088035785678  0.3332911964214322  0.3333430126732117
  0.8333580660272148  0.5000083648047022  0.8333431923022364
  0.6667088035785678  0.3332911964214322  0.6666569873267884
  0.8333704610895832  0.8333704610895832  0.1666717209213862
  0.6666912248437608  0.6666912248437608  0.0000000000000000
  0.8333632121534065  0.8333632121534065  0.5000000000000000
  0.6667159748675690  0.6667159748675690  0.3333144437826083
  0.8333704610895832  0.8333704610895832  0.8333282790786138
  0.6667159748675690  0.6667159748675690  0.6666855562173915
 
  0.00000000E+00  0.00000000E+00  0.00000000E+00
  0.00000000E+00  0.00000000E+00  0.00000000E+00
  0.00000000E+00  0.00000000E+00  0.00000000E+00
  0.00000000E+00  0.00000000E+00  0.00000000E+00
  0.00000000E+00  0.00000000E+00  0.00000000E+00
  0.00000000E+00  0.00000000E+00  0.00000000E+00
  0.00000000E+00  0.00000000E+00  0.00000000E+00
  0.00000000E+00  0.00000000E+00  0.00000000E+00
  0.00000000E+00  0.00000000E+00  0.00000000E+00
  0.00000000E+00  0.00000000E+00  0.00000000E+00
  0.00000000E+00  0.00000000E+00  0.00000000E+00
  0.00000000E+00  0.00000000E+00  0.00000000E+00
  0.00000000E+00  0.00000000E+00  0.00000000E+00
  0.00000000E+00  0.00000000E+00  0.00000000E+00
  0.00000000E+00  0.00000000E+00  0.00000000E+00
  0.00000000E+00  0.00000000E+00  0.00000000E+00
  0.00000000E+00  0.00000000E+00  0.00000000E+00
  0.00000000E+00  0.00000000E+00  0.00000000E+00
  0.00000000E+00  0.00000000E+00  0.00000000E+00
  0.00000000E+00  0.00000000E+00  0.00000000E+00
  0.00000000E+00  0.00000000E+00  0.00000000E+00
  0.00000000E+00  0.00000000E+00  0.00000000E+00
  0.00000000E+00  0.00000000E+00  0.00000000E+00
  0.00000000E+00  0.00000000E+00  0.00000000E+00
  0.00000000E+00  0.00000000E+00  0.00000000E+00
  0.00000000E+00  0.00000000E+00  0.00000000E+00
  0.00000000E+00  0.00000000E+00  0.00000000E+00
  0.00000000E+00  0.00000000E+00  0.00000000E+00
  0.00000000E+00  0.00000000E+00  0.00000000E+00
  0.00000000E+00  0.00000000E+00  0.00000000E+00
  0.00000000E+00  0.00000000E+00  0.00000000E+00
  0.00000000E+00  0.00000000E+00  0.00000000E+00
  0.00000000E+00  0.00000000E+00  0.00000000E+00
  0.00000000E+00  0.00000000E+00  0.00000000E+00
  0.00000000E+00  0.00000000E+00  0.00000000E+00
  0.00000000E+00  0.00000000E+00  0.00000000E+00
  0.00000000E+00  0.00000000E+00  0.00000000E+00
  0.00000000E+00  0.00000000E+00  0.00000000E+00
  0.00000000E+00  0.00000000E+00  0.00000000E+00
  0.00000000E+00  0.00000000E+00  0.00000000E+00
  0.00000000E+00  0.00000000E+00  0.00000000E+00
  0.00000000E+00  0.00000000E+00  0.00000000E+00
  0.00000000E+00  0.00000000E+00  0.00000000E+00
  0.00000000E+00  0.00000000E+00  0.00000000E+00
  0.00000000E+00  0.00000000E+00  0.00000000E+00
  0.00000000E+00  0.00000000E+00  0.00000000E+00
  0.00000000E+00  0.00000000E+00  0.00000000E+00
  0.00000000E+00  0.00000000E+00  0.00000000E+00
  0.00000000E+00  0.00000000E+00  0.00000000E+00
  0.00000000E+00  0.00000000E+00  0.00000000E+00
  0.00000000E+00  0.00000000E+00  0.00000000E+00
  0.00000000E+00  0.00000000E+00  0.00000000E+00
  0.00000000E+00  0.00000000E+00  0.00000000E+00
  0.00000000E+00  0.00000000E+00  0.00000000E+00
  0.00000000E+00  0.00000000E+00  0.00000000E+00
  0.00000000E+00  0.00000000E+00  0.00000000E+00
  0.00000000E+00  0.00000000E+00  0.00000000E+00
  0.00000000E+00  0.00000000E+00  0.00000000E+00
  0.00000000E+00  0.00000000E+00  0.00000000E+00
  0.00000000E+00  0.00000000E+00  0.00000000E+00
  0.00000000E+00  0.00000000E+00  0.00000000E+00
  0.00000000E+00  0.00000000E+00  0.00000000E+00
  0.00000000E+00  0.00000000E+00  0.00000000E+00
  0.00000000E+00  0.00000000E+00  0.00000000E+00
  0.00000000E+00  0.00000000E+00  0.00000000E+00
  0.00000000E+00  0.00000000E+00  0.00000000E+00
  0.00000000E+00  0.00000000E+00  0.00000000E+00
  0.00000000E+00  0.00000000E+00  0.00000000E+00
  0.00000000E+00  0.00000000E+00  0.00000000E+00
  0.00000000E+00  0.00000000E+00  0.00000000E+00
  0.00000000E+00  0.00000000E+00  0.00000000E+00
  0.00000000E+00  0.00000000E+00  0.00000000E+00
  0.00000000E+00  0.00000000E+00  0.00000000E+00
  0.00000000E+00  0.00000000E+00  0.00000000E+00
  0.00000000E+00  0.00000000E+00  0.00000000E+00
  0.00000000E+00  0.00000000E+00  0.00000000E+00
  0.00000000E+00  0.00000000E+00  0.00000000E+00
  0.00000000E+00  0.00000000E+00  0.00000000E+00
  0.00000000E+00  0.00000000E+00  0.00000000E+00
  0.00000000E+00  0.00000000E+00  0.00000000E+00
  0.00000000E+00  0.00000000E+00  0.00000000E+00
  0.00000000E+00  0.00000000E+00  0.00000000E+00
  0.00000000E+00  0.00000000E+00  0.00000000E+00
  0.00000000E+00  0.00000000E+00  0.00000000E+00
  0.00000000E+00  0.00000000E+00  0.00000000E+00
  0.00000000E+00  0.00000000E+00  0.00000000E+00
  0.00000000E+00  0.00000000E+00  0.00000000E+00
  0.00000000E+00  0.00000000E+00  0.00000000E+00
  0.00000000E+00  0.00000000E+00  0.00000000E+00
  0.00000000E+00  0.00000000E+00  0.00000000E+00
  0.00000000E+00  0.00000000E+00  0.00000000E+00
  0.00000000E+00  0.00000000E+00  0.00000000E+00
  0.00000000E+00  0.00000000E+00  0.00000000E+00
  0.00000000E+00  0.00000000E+00  0.00000000E+00
  0.00000000E+00  0.00000000E+00  0.00000000E+00
  0.00000000E+00  0.00000000E+00  0.00000000E+00
  0.00000000E+00  0.00000000E+00  0.00000000E+00
  0.00000000E+00  0.00000000E+00  0.00000000E+00
  0.00000000E+00  0.00000000E+00  0.00000000E+00
  0.00000000E+00  0.00000000E+00  0.00000000E+00
  0.00000000E+00  0.00000000E+00  0.00000000E+00
  0.00000000E+00  0.00000000E+00  0.00000000E+00
  0.00000000E+00  0.00000000E+00  0.00000000E+00
  0.00000000E+00  0.00000000E+00  0.00000000E+00
  0.00000000E+00  0.00000000E+00  0.00000000E+00
  0.00000000E+00  0.00000000E+00  0.00000000E+00
  0.00000000E+00  0.00000000E+00  0.00000000E+00
  0.00000000E+00  0.00000000E+00  0.00000000E+00
  0.00000000E+00  0.00000000E+00  0.00000000E+00
  0.00000000E+00  0.00000000E+00  0.00000000E+00
  0.00000000E+00  0.00000000E+00  0.00000000E+00
  0.00000000E+00  0.00000000E+00  0.00000000E+00
  0.00000000E+00  0.00000000E+00  0.00000000E+00
  0.00000000E+00  0.00000000E+00  0.00000000E+00
  0.00000000E+00  0.00000000E+00  0.00000000E+00
  0.00000000E+00  0.00000000E+00  0.00000000E+00
  0.00000000E+00  0.00000000E+00  0.00000000E+00
  0.00000000E+00  0.00000000E+00  0.00000000E+00
  0.00000000E+00  0.00000000E+00  0.00000000E+00
  0.00000000E+00  0.00000000E+00  0.00000000E+00
  0.00000000E+00  0.00000000E+00  0.00000000E+00
  0.00000000E+00  0.00000000E+00  0.00000000E+00
  0.00000000E+00  0.00000000E+00  0.00000000E+00
  0.00000000E+00  0.00000000E+00  0.00000000E+00
  0.00000000E+00  0.00000000E+00  0.00000000E+00
  0.00000000E+00  0.00000000E+00  0.00000000E+00
  0.00000000E+00  0.00000000E+00  0.00000000E+00
  0.00000000E+00  0.00000000E+00  0.00000000E+00
  0.00000000E+00  0.00000000E+00  0.00000000E+00
  0.00000000E+00  0.00000000E+00  0.00000000E+00
  0.00000000E+00  0.00000000E+00  0.00000000E+00
  0.00000000E+00  0.00000000E+00  0.00000000E+00
  0.00000000E+00  0.00000000E+00  0.00000000E+00
  0.00000000E+00  0.00000000E+00  0.00000000E+00
  0.00000000E+00  0.00000000E+00  0.00000000E+00
  0.00000000E+00  0.00000000E+00  0.00000000E+00
  0.00000000E+00  0.00000000E+00  0.00000000E+00
  0.00000000E+00  0.00000000E+00  0.00000000E+00
  0.00000000E+00  0.00000000E+00  0.00000000E+00
  0.00000000E+00  0.00000000E+00  0.00000000E+00
  0.00000000E+00  0.00000000E+00  0.00000000E+00
  0.00000000E+00  0.00000000E+00  0.00000000E+00
  0.00000000E+00  0.00000000E+00  0.00000000E+00
  0.00000000E+00  0.00000000E+00  0.00000000E+00
  0.00000000E+00  0.00000000E+00  0.00000000E+00
  0.00000000E+00  0.00000000E+00  0.00000000E+00
  0.00000000E+00  0.00000000E+00  0.00000000E+00
  0.00000000E+00  0.00000000E+00  0.00000000E+00
  0.00000000E+00  0.00000000E+00  0.00000000E+00
  0.00000000E+00  0.00000000E+00  0.00000000E+00
  0.00000000E+00  0.00000000E+00  0.00000000E+00
  0.00000000E+00  0.00000000E+00  0.00000000E+00
  0.00000000E+00  0.00000000E+00  0.00000000E+00
  0.00000000E+00  0.00000000E+00  0.00000000E+00
  0.00000000E+00  0.00000000E+00  0.00000000E+00
  0.00000000E+00  0.00000000E+00  0.00000000E+00
  0.00000000E+00  0.00000000E+00  0.00000000E+00
  0.00000000E+00  0.00000000E+00  0.00000000E+00
  0.00000000E+00  0.00000000E+00  0.00000000E+00
  0.00000000E+00  0.00000000E+00  0.00000000E+00
  0.00000000E+00  0.00000000E+00  0.00000000E+00
  0.00000000E+00  0.00000000E+00  0.00000000E+00
