Ti  O 
 1.0000000000000000
     4.6500000000000004    0.0000000000000000    0.0000000000000000
     0.0000000000000000    4.6500000000000004    0.0000000000000000
     0.0000000000000000    0.0000000000000000    2.9760000000000000
 Ti  O  
   2   4
Cartesian
  2.2999186619403549  2.2999186619403549  0.0000000000000003
  0.0000000000000000  0.0000000000000000  1.4796067800005666
  3.2000087806912516  3.2000087806912516  1.4796067800005670
  0.9000901187508962  3.6997472051298090  0.0000000000000003
  3.6997472051298090  0.9000901187508964  0.0000000000000003
  1.3998285431894537  1.3998285431894537  1.4796067800005668
